\ENCODING=ISO-8859-1
\Problem name: ilog.cplex

Minimize
 obj: x(0,1) + 1000 x(0,2) + x(0,3) + 1000 x(0,4) + 1000 x(0,5) + 1000 x(1,0)
      + x(1,2) + 1000 x(1,3) + 1000 x(1,4) + x(1,5) + x(2,0) + 1000 x(2,1)
      + 1000 x(2,3) + 1000 x(2,4) + 1000 x(2,5) + 1000 x(3,0) + x(3,1)
      + 1000 x(3,2) + x(3,4) + 1000 x(3,5) + x(4,0) + 1000 x(4,1) + 1000 x(4,2)
      + 1000 x(4,3) + x(4,5) + x(5,0) + 1000 x(5,1) + x(5,2) + 3 x(5,3)
      + 1000 x(5,4)
Subject To
 _expression02(1)#0:             x(0,1) + x(2,1) + x(3,1) + x(4,1) + x(5,1)
                                  = 1
 _expression02(2)#1:             x(0,2) + x(1,2) + x(3,2) + x(4,2) + x(5,2)
                                  = 1
 _expression02(3)#2:             x(0,3) + x(1,3) + x(2,3) + x(4,3) + x(5,3)
                                  = 1
 _expression02(4)#3:             x(0,4) + x(1,4) + x(2,4) + x(3,4) + x(5,4)
                                  = 1
 _expression02(5)#4:             x(0,5) + x(1,5) + x(2,5) + x(3,5) + x(4,5)
                                  = 1
 _expression18(1)#5:             x(0,1) - x(1,2) - x(1,3) - x(1,4) - x(1,5)
                                 + x(2,1) + x(3,1) + x(4,1) + x(5,1) >= 0
 _expression18(2)#6:             x(0,2) + x(1,2) - x(2,1) - x(2,3) - x(2,4)
                                 - x(2,5) + x(3,2) + x(4,2) + x(5,2) >= 0
 _expression18(3)#7:             x(0,3) + x(1,3) + x(2,3) - x(3,1) - x(3,2)
                                 - x(3,4) - x(3,5) + x(4,3) + x(5,3) >= 0
 _expression18(4)#8:             x(0,4) + x(1,4) + x(2,4) + x(3,4) - x(4,1)
                                 - x(4,2) - x(4,3) - x(4,5) + x(5,4) >= 0
 _expression18(5)#9:             x(0,5) + x(1,5) + x(2,5) + x(3,5) + x(4,5)
                                 - x(5,1) - x(5,2) - x(5,3) - x(5,4) >= 0
 _expression19((_0,1_),(_1,0_))#10: x(0,1) + x(1,0) <= 1
 _expression19((_0,2_),(_2,0_))#11: x(0,2) + x(2,0) <= 1
 _expression19((_0,3_),(_3,0_))#12: x(0,3) + x(3,0) <= 1
 _expression19((_0,4_),(_4,0_))#13: x(0,4) + x(4,0) <= 1
 _expression19((_0,5_),(_5,0_))#14: x(0,5) + x(5,0) <= 1
 _expression19((_1,2_),(_2,1_))#15: x(1,2) + x(2,1) <= 1
 _expression19((_1,3_),(_3,1_))#16: x(1,3) + x(3,1) <= 1
 _expression19((_1,4_),(_4,1_))#17: x(1,4) + x(4,1) <= 1
 _expression19((_1,5_),(_5,1_))#18: x(1,5) + x(5,1) <= 1
 _expression19((_2,3_),(_3,2_))#19: x(2,3) + x(3,2) <= 1
 _expression19((_2,4_),(_4,2_))#20: x(2,4) + x(4,2) <= 1
 _expression19((_2,5_),(_5,2_))#21: x(2,5) + x(5,2) <= 1
 _expression19((_3,4_),(_4,3_))#22: x(3,4) + x(4,3) <= 1
 _expression19((_3,5_),(_5,3_))#23: x(3,5) + x(5,3) <= 1
 _expression19((_4,5_),(_5,4_))#24: x(4,5) + x(5,4) <= 1
 _expression20#25:               x(1,0) + x(2,0) + x(3,0) + x(4,0) + x(5,0)
                                  = 0
 _expression04((_1,2_))#26:      10 x(1,2) + 5 x(2,1) + u(1) - u(2) <= 8
 _expression04((_1,3_))#27:      10 x(1,3) + 2 x(3,1) + u(1) - u(3) <= 5
 _expression04((_1,4_))#28:      10 x(1,4) + 5 x(4,1) + u(1) - u(4) <= 8
 _expression04((_1,5_))#29:      10 x(1,5) + x(5,1) + u(1) - u(5) <= 4
 _expression04((_2,1_))#30:      10 x(2,1) - u(1) + u(2) <= 7
 _expression04((_2,3_))#31:      10 x(2,3) + 3 x(3,2) + u(2) - u(3) <= 5
 _expression04((_2,4_))#32:      10 x(2,4) + 6 x(4,2) + u(2) - u(4) <= 8
 _expression04((_2,5_))#33:      10 x(2,5) + 2 x(5,2) + u(2) - u(5) <= 4
 _expression04((_3,1_))#34:      10 x(3,1) - u(1) + u(3) <= 7
 _expression04((_3,2_))#35:      10 x(3,2) - u(2) + u(3) <= 8
 _expression04((_3,4_))#36:      10 x(3,4) + 3 x(4,3) + u(3) - u(4) <= 8
 _expression04((_3,5_))#37:      10 x(3,5) - x(5,3) + u(3) - u(5) <= 4
 _expression04((_4,1_))#38:      10 x(4,1) - u(1) + u(4) <= 7
 _expression04((_4,2_))#39:      10 x(4,2) - u(2) + u(4) <= 8
 _expression04((_4,3_))#40:      10 x(4,3) - u(3) + u(4) <= 5
 _expression04((_4,5_))#41:      10 x(4,5) + 2 x(5,4) + u(4) - u(5) <= 4
 _expression04((_5,1_))#42:      10 x(5,1) - u(1) + u(5) <= 7
 _expression04((_5,2_))#43:      10 x(5,2) - u(2) + u(5) <= 8
 _expression04((_5,3_))#44:      10 x(5,3) - u(3) + u(5) <= 5
 _expression04((_5,4_))#45:      10 x(5,4) - u(4) + u(5) <= 8
 _expression05(1)#46:            - 2 x(2,1) - 5 x(3,1) - 2 x(4,1) - 6 x(5,1)
                                 + u(1) >= 3
 _expression05(2)#47:            - 3 x(1,2) - 5 x(3,2) - 2 x(4,2) - 6 x(5,2)
                                 + u(2) >= 2
 _expression05(3)#48:            - 3 x(1,3) - 2 x(2,3) - 2 x(4,3) - 6 x(5,3)
                                 + u(3) >= 5
 _expression05(4)#49:            - 3 x(1,4) - 2 x(2,4) - 5 x(3,4) - 6 x(5,4)
                                 + u(4) >= 2
 _expression05(5)#50:            - 3 x(1,5) - 2 x(2,5) - 5 x(3,5) - 2 x(4,5)
                                 + u(5) >= 6
 _expression06(1)#51:            x(0,1) + 2 x(1,2) + 5 x(1,3) + 2 x(1,4)
                                 + 6 x(1,5) + u(1) <= 10
 _expression06(2)#52:            2 x(0,2) + 3 x(2,1) + 5 x(2,3) + 2 x(2,4)
                                 + 6 x(2,5) + u(2) <= 10
 _expression06(3)#53:            - x(0,3) + 3 x(3,1) + 2 x(3,2) + 2 x(3,4)
                                 + 6 x(3,5) + u(3) <= 10
 _expression06(4)#54:            2 x(0,4) + 3 x(4,1) + 2 x(4,2) + 5 x(4,3)
                                 + 6 x(4,5) + u(4) <= 10
 _expression06(5)#55:            - x(0,5) + 3 x(5,1) + 2 x(5,2) + 5 x(5,3)
                                 + 2 x(5,4) + u(5) <= 10
 _expression07(u(0))#56:         u(0)  = 0
 _expression08(1)#57:            1001 x(0,1) >= 0
 _expression08(2)#58:            1001 x(0,2) >= -999
 _expression08(3)#59:            1001 x(0,3) >= 2
 _expression08(4)#60:            1001 x(0,4) >= -999
 _expression08(5)#61:            1001 x(0,5) >= -999
 _expression10#62:               x(0,1) + x(0,2) + x(0,3) + x(0,4) + x(0,5)
                                 >= 2
Bounds
 0 <= x(0,1) <= 1
 0 <= x(0,2) <= 1
 0 <= x(0,3) <= 1
 0 <= x(0,4) <= 1
 0 <= x(0,5) <= 1
 0 <= x(1,0) <= 1
 0 <= x(1,2) <= 1
 0 <= x(1,3) <= 1
 0 <= x(1,4) <= 1
 0 <= x(1,5) <= 1
 0 <= x(2,0) <= 1
 0 <= x(2,1) <= 1
 0 <= x(2,3) <= 1
 0 <= x(2,4) <= 1
 0 <= x(2,5) <= 1
 0 <= x(3,0) <= 1
 0 <= x(3,1) <= 1
 0 <= x(3,2) <= 1
 0 <= x(3,4) <= 1
 0 <= x(3,5) <= 1
 0 <= x(4,0) <= 1
 0 <= x(4,1) <= 1
 0 <= x(4,2) <= 1
 0 <= x(4,3) <= 1
 0 <= x(4,5) <= 1
 0 <= x(5,0) <= 1
 0 <= x(5,1) <= 1
 0 <= x(5,2) <= 1
 0 <= x(5,3) <= 1
 0 <= x(5,4) <= 1
Binaries
 x(0,1)  x(0,2)  x(0,3)  x(0,4)  x(0,5)  x(1,0)  x(1,2)  x(1,3)  x(1,4) 
 x(1,5)  x(2,0)  x(2,1)  x(2,3)  x(2,4)  x(2,5)  x(3,0)  x(3,1)  x(3,2) 
 x(3,4)  x(3,5)  x(4,0)  x(4,1)  x(4,2)  x(4,3)  x(4,5)  x(5,0)  x(5,1) 
 x(5,2)  x(5,3)  x(5,4) 
End
